\ENCODING=ISO-8859-1
\Problem name: 

Minimize
 obj: x1 + x2 + x3 + x4 + x5 + x6 + x7 + x8 + x9 + x10 + x11 + x12 + x13 + x14
      + x15 + x16 + x17 + x18 + x19 + x20 + x21 + x22 + x23 + x24 + x25 + x26
      + x27 + x28 + x29 + x30 + x31 + x32 + 2 x33 + 2 x34 + 2 x35 + 2 x36
      + 2 x37 + 2 x38 + 2 x39 + 2 x40 + 2 x41 + 2 x42 + 2 x43 + 2 x44 + 2 x45
      + 2 x46 + 2 x47 + 2 x48 + 2 x49 + 2 x50 + 2 x51 + 2 x52 + 2 x53 + 2 x54
      + 2 x55 + 2 x56 + 2 x57 + 2 x58 + 2 x59 + 2 x60 + 3 x61 + 3 x62 + 3 x63
      + 3 x64 + 3 x65 + 3 x66 + 3 x67 + 3 x68 + 3 x69 + 3 x70 + 3 x71 + 3 x72
      + 3 x73 + 3 x74 + 3 x75 + 3 x76 + 3 x77 + 3 x78 + 3 x79 + 3 x80 + 3 x81
      + 3 x82 + 3 x83 + 4 x84 + 4 x85 + 4 x86 + 4 x87 + 4 x88 + 4 x89 + 4 x90
      + 4 x91 + 4 x92 + 4 x93 + 4 x94 + 4 x95 + 4 x96 + 4 x97 + 4 x98 + 4 x99
      + 4 x100 + 4 x101 + 4 x102 + 4 x103 + 4 x104 + 4 x105 + 4 x106 + 4 x107
      + 4 x108 + 4 x109 + 4 x110 + 4 x111 + 4 x112 + 4 x113 + 4 x114 + 5 x115
      + 5 x116 + 5 x117 + 5 x118 + 5 x119 + 5 x120 + 5 x121 + 5 x122 + 5 x123
      + 5 x124 + 5 x125 + 5 x126 + 5 x127 + 5 x128 + 5 x129 + 5 x130 + 5 x131
      + 5 x132 + 5 x133 + 5 x134 + 5 x135 + 5 x136 + 5 x137 + 5 x138 + 5 x139
      + 5 x140 + 5 x141 + 5 x142 + 5 x143 + 5 x144 + 5 x145 + 6 x146 + 6 x147
      + 6 x148 + 6 x149 + 6 x150 + 6 x151 + 6 x152 + 6 x153 + 6 x154 + 6 x155
      + 6 x156 + 6 x157 + 6 x158 + 6 x159 + 6 x160 + 6 x161 + 6 x162 + 6 x163
      + 6 x164 + 6 x165 + 6 x166 + 6 x167 + 6 x168 + 6 x169 + 7 x170 + 7 x171
      + 7 x172 + 7 x173 + 7 x174 + 7 x175 + 7 x176 + 7 x177 + 7 x178 + 7 x179
      + 7 x180 + 7 x181 + 7 x182 + 7 x183 + 7 x184 + 7 x185 + 7 x186 + 7 x187
      + 7 x188 + 7 x189 + 7 x190 + 7 x191 + 8 x192 + 8 x193 + 8 x194 + 8 x195
      + 8 x196 + 8 x197 + 8 x198 + 8 x199 + 8 x200 + 8 x201 + 8 x202 + 8 x203
      + 8 x204 + 8 x205 + 8 x206 + 8 x207 + 8 x208 + 8 x209 + 8 x210 + 8 x211
      + 8 x212 + 8 x213 + 8 x214 + 8 x215 + 9 x216 + 9 x217 + 9 x218 + 9 x219
      + 9 x220 + 9 x221 + 9 x222 + 9 x223 + 9 x224 + 9 x225 + 9 x226 + 9 x227
      + 9 x228 + 10 x229 + 10 x230 + 10 x231 + 10 x232 + 10 x233 + 10 x234
      + 10 x235 + 10 x236 + 10 x237 + 10 x238 + 10 x239 + 10 x240 + 10 x241
      + 10 x242 + 10 x243 + 10 x244 + 10 x245 + 10 x246 + 10 x247 + 10 x248
      + 10 x249 + 10 x250 + 10 x251 + 10 x252 + 10 x253 + 11 x254 + 11 x255
      + 11 x256 + 11 x257 + 11 x258 + 11 x259 + 11 x260 + 11 x261 + 11 x262
      + 11 x263 + 11 x264 + 11 x265 + 11 x266 + 11 x267 + 11 x268 + 12 x269
      + 12 x270 + 12 x271 + 12 x272 + 12 x273 + 12 x274 + 12 x275 + 12 x276
      + 12 x277 + 12 x278 + 12 x279 + 12 x280 + 13 x281 + 13 x282 + 13 x283
      + 13 x284 + 13 x285 + 13 x286 + 13 x287 + 13 x288 + 13 x289 + 13 x290
      + 13 x291 + 13 x292 + 14 x293 + 14 x294 + 14 x295 + 14 x296 + 14 x297
      + 14 x298 + 14 x299 + 14 x300 + 15 x301 + 15 x302 + 15 x303 + 15 x304
      + 15 x305 + 15 x306 + 15 x307 + 15 x308 + 15 x309 + 15 x310 + 15 x311
      + 16 x312 + 16 x313 + 16 x314 + 16 x315 + 17 x316 + 17 x317 + 17 x318
      + 17 x319 + 17 x320 + 18 x321 + 18 x322 + 19 x323 + 19 x324 + 20 x325
      + 20 x326 + 20 x327 + 20 x328 + 20 x329 + 21 x330 + 21 x331 + 21 x332
      + 21 x333 + 22 x334 + 22 x335 + 22 x336 + 23 x337 + 24 x338 + 25 x339
Subject To
 c1:   x6 + x15 + x30 + x45 + x65 + x94 + x102 + x237 + x256 + x277 >= 1
 c2:   x70 + x77 + x151 + x218 + x321 >= 1
 c3:   x53 + x84 + x120 + x122 + x197 + x241 + x261 + x271 + x272 + x293 >= 1
 c4:   x70 + x73 + x105 + x122 + x127 + x129 + x185 + x212 + x229 + x230 + x294
       + x313 >= 1
 c5:   x7 + x51 + x135 + x136 >= 1
 c6:   x10 + x124 + x138 + x149 + x172 + x238 + x303 >= 1
 c7:   x3 + x40 + x98 + x108 + x235 + x269 + x281 >= 1
 c8:   x6 + x18 + x33 + x99 + x142 + x227 + x330 >= 1
 c9:   x41 + x175 + x254 + x313 + x322 + x330 + x333 + x337 >= 1
 c10:  x97 + x188 + x303 + x338 >= 1
 c11:  x5 + x110 + x149 + x161 + x177 + x317 >= 1
 c12:  x87 + x144 + x236 + x265 + x324 >= 1
 c13:  x92 + x170 + x221 + x248 + x282 + x310 + x317 + x327 >= 1
 c14:  x36 + x63 + x69 + x77 + x141 + x205 + x264 + x300 + x307 + x313 >= 1
 c15:  x35 + x61 + x64 + x86 + x97 + x283 + x329 >= 1
 c16:  x19 + x99 + x107 + x115 + x170 + x184 + x188 + x262 >= 1
 c17:  x12 + x24 + x36 + x55 + x59 + x99 + x298 + x331 >= 1
 c18:  x22 + x87 + x127 + x161 + x177 + x217 + x238 + x250 + x284 >= 1
 c19:  x112 + x116 + x163 + x172 + x180 + x216 + x228 + x262 + x291 + x315
       + x325 >= 1
 c20:  x89 + x122 + x152 + x207 + x213 + x237 + x266 + x299 + x313 >= 1
 c21:  x88 + x149 + x214 + x228 + x234 + x236 + x247 + x257 + x282 >= 1
 c22:  x7 + x193 + x278 + x295 >= 1
 c23:  x11 + x25 + x110 + x206 + x214 + x229 + x239 + x265 >= 1
 c24:  x28 + x87 + x200 >= 1
 c25:  x48 + x66 + x285 + x312 + x324 + x325 >= 1
 c26:  x3 + x38 + x119 + x132 + x149 + x208 + x249 + x295 >= 1
 c27:  x31 + x39 + x109 + x116 + x125 + x167 + x210 + x242 + x320 >= 1
 c28:  x22 + x90 + x142 + x240 + x282 >= 1
 c29:  x2 + x35 + x189 + x195 + x254 + x268 + x338 >= 1
 c30:  x162 + x168 + x199 + x243 + x252 + x309 >= 1
 c31:  x23 + x89 + x97 + x244 + x278 + x284 + x326 >= 1
 c32:  x21 + x84 + x158 + x172 + x178 + x193 + x200 + x229 + x259 + x331 >= 1
 c33:  x63 + x94 + x146 + x150 + x176 + x201 + x258 + x290 + x318 >= 1
 c34:  x8 + x12 + x84 + x174 + x209 + x247 + x256 + x284 >= 1
 c35:  x1 + x14 + x281 + x288 + x308 + x316 >= 1
 c36:  x36 + x50 + x172 + x196 + x199 + x236 + x262 + x325 + x329 >= 1
 c37:  x5 + x88 + x93 + x128 + x223 + x261 >= 1
 c38:  x16 + x26 + x101 + x147 + x157 + x270 + x312 >= 1
 c39:  x9 + x60 + x245 + x275 + x334 + x339 >= 1
 c40:  x33 + x44 + x91 + x110 + x126 + x133 + x236 + x256 + x275 >= 1
 c41:  x38 + x44 + x61 + x148 + x150 + x255 + x282 >= 1
 c42:  x10 + x64 + x86 + x100 + x119 + x139 + x283 >= 1
 c43:  x21 + x70 + x90 + x145 + x187 + x199 + x204 + x217 + x260 >= 1
 c44:  x15 + x119 + x170 + x194 + x278 >= 1
 c45:  x3 + x37 + x223 + x272 + x334 >= 1
 c46:  x13 + x71 + x81 + x97 + x233 + x238 + x275 + x289 + x302 + x309 + x338
       >= 1
 c47:  x27 + x115 + x128 + x148 + x172 + x208 + x239 + x260 >= 1
 c48:  x21 + x75 + x100 + x108 + x197 + x218 + x231 + x234 + x254 + x337 + x338
       >= 1
 c49:  x195 + x222 + x239 + x265 + x307 + x319 + x320 + x333 >= 1
 c50:  x192 + x268 + x279 + x318 + x330 + x334 >= 1
 c51:  x61 + x67 + x90 + x171 + x294 + x301 + x336 >= 1
 c52:  x58 + x151 + x153 + x164 >= 1
 c53:  x6 + x51 + x64 + x124 + x144 + x195 + x216 + x281 >= 1
 c54:  x46 + x97 + x173 + x197 + x201 + x217 + x221 + x222 + x231 + x239 + x275
       + x277 + x314 + x330 >= 1
 c55:  x70 + x146 + x159 + x197 + x213 + x219 + x248 + x257 + x309 + x326
       + x333 >= 1
 c56:  x39 + x46 + x112 + x155 + x229 + x232 + x267 + x272 + x338 >= 1
 c57:  x4 + x5 + x86 + x89 + x129 + x171 + x217 + x288 >= 1
 c58:  x85 + x149 + x169 + x231 + x236 >= 1
 c59:  x15 + x71 + x196 + x213 + x236 + x243 + x256 + x331 >= 1
 c60:  x17 + x84 + x120 + x192 + x240 + x270 + x273 + x306 >= 1
 c61:  x54 + x94 + x142 + x152 + x274 + x276 + x280 + x299 + x301 + x328 >= 1
 c62:  x105 + x113 + x118 + x119 + x169 + x174 + x198 + x240 + x250 + x274
       + x288 + x331 >= 1
 c63:  x92 + x147 + x322 + x329 >= 1
 c64:  x13 + x46 + x60 + x85 + x89 + x123 + x156 + x269 + x309 + x313 + x324
       >= 1
 c65:  x1 + x13 + x39 + x41 + x61 + x157 + x193 + x196 + x255 + x295 + x307
       >= 1
 c66:  x41 + x147 + x178 + x185 + x193 + x230 + x282 + x307 >= 1
 c67:  x156 + x211 + x227 + x235 + x241 + x261 + x286 + x300 + x304 + x311
       + x316 + x319 >= 1
 c68:  x10 + x113 + x117 + x124 + x190 + x275 + x297 >= 1
 c69:  x1 + x3 + x9 + x38 + x170 + x193 + x214 + x216 + x285 + x298 + x305
       + x322 + x333 >= 1
 c70:  x46 + x63 + x122 + x203 + x231 + x271 + x293 + x337 >= 1
 c71:  x63 + x121 + x213 + x227 + x285 + x298 + x314 >= 1
 c72:  x5 + x10 + x57 + x122 + x202 + x242 + x255 >= 1
 c73:  x61 + x73 + x84 + x126 + x203 + x238 + x247 + x258 + x278 + x305 + x311
       + x327 + x338 >= 1
 c74:  x36 + x77 + x111 + x117 + x194 + x197 + x212 + x220 + x261 + x268 + x278
       + x322 + x329 >= 1
 c75:  x11 + x55 + x170 + x204 + x263 + x274 >= 1
 c76:  x12 + x68 + x147 + x212 + x219 + x257 + x336 >= 1
 c77:  x93 + x97 + x114 + x156 + x220 + x222 + x246 + x261 + x264 + x271 >= 1
 c78:  x42 + x45 + x78 + x102 + x138 + x336 + x339 >= 1
 c79:  x102 + x131 + x147 + x222 + x232 + x275 >= 1
 c80:  x4 + x86 + x87 + x96 + x148 + x172 + x174 + x273 + x316 + x319 >= 1
 c81:  x178 + x183 + x244 + x294 + x310 + x334 >= 1
 c82:  x171 + x200 + x215 + x238 + x260 + x331 + x332 >= 1
 c83:  x32 + x39 + x67 + x121 + x176 + x225 + x233 + x234 + x241 + x264 >= 1
 c84:  x29 + x36 + x43 + x86 + x202 + x211 + x294 >= 1
 c85:  x14 + x92 + x116 + x203 + x327 >= 1
 c86:  x63 + x123 + x148 + x155 + x198 + x245 + x253 + x255 + x273 + x274
       + x312 >= 1
 c87:  x8 + x25 + x78 + x126 + x134 + x170 + x179 + x196 + x198 + x259 + x287
       >= 1
 c88:  x116 + x165 + x258 + x262 + x277 + x280 + x293 + x303 + x324 >= 1
 c89:  x35 + x150 + x154 + x167 + x170 + x172 + x199 >= 1
 c90:  x7 + x106 + x216 + x238 + x279 >= 1
 c91:  x154 + x286 + x321 + x326 + x333 + x335 + x338 + x339 >= 1
 c92:  x14 + x47 + x173 + x207 + x281 + x284 + x298 + x303 + x330 >= 1
 c93:  x7 + x85 + x144 + x172 + x177 + x178 + x203 + x208 + x269 + x338 >= 1
 c94:  x11 + x39 + x67 + x77 + x141 + x146 + x149 + x181 + x294 + x304 >= 1
 c95:  x126 + x135 + x138 + x143 + x216 + x241 + x242 + x287 + x291 + x314
       + x320 >= 1
 c96:  x35 + x43 + x87 + x89 + x90 + x91 + x100 + x119 + x137 + x161 + x218
       + x254 + x256 + x339 >= 1
 c97:  x16 + x100 + x158 + x182 + x270 + x272 >= 1
 c98:  x20 + x42 + x57 + x66 + x146 + x184 + x231 + x274 + x296 + x338 >= 1
 c99:  x37 + x115 + x121 + x336 >= 1
 c100: x103 + x119 + x195 >= 1
 c101: x62 + x69 + x84 + x95 + x109 + x119 + x137 + x158 + x179 + x210 + x225
       + x298 >= 1
 c102: x16 + x120 + x193 + x223 >= 1
 c103: x135 + x180 + x322 + x323 >= 1
 c104: x17 + x48 + x68 + x125 + x176 + x261 + x271 + x295 + x304 + x335 >= 1
 c105: x12 + x41 + x83 + x251 + x283 + x293 + x311 >= 1
 c106: x19 + x73 + x122 + x215 + x296 + x305 + x308 + x313 >= 1
 c107: x51 + x53 + x67 + x118 + x215 + x221 + x226 + x236 + x251 + x258 >= 1
 c108: x25 + x50 + x51 + x61 + x107 + x115 + x140 + x191 + x200 + x233 + x256
       + x303 >= 1
 c109: x116 + x212 + x299 + x328 >= 1
 c110: x14 + x44 + x151 + x162 + x201 + x233 + x265 >= 1
 c111: x21 + x69 + x125 + x204 + x260 + x275 + x293 + x334 + x338 >= 1
 c112: x22 + x39 + x121 + x158 + x224 + x246 + x314 + x324 >= 1
 c113: x11 + x34 + x63 + x68 + x244 + x287 + x296 >= 1
 c114: x40 + x116 + x120 + x122 + x137 + x175 + x255 + x316 + x330 >= 1
 c115: x9 + x37 + x259 >= 1
 c116: x11 + x14 + x330 >= 1
 c117: x5 + x61 + x127 + x150 + x266 + x282 + x315 >= 1
 c118: x147 + x148 + x155 + x259 + x323 + x330 + x339 >= 1
 c119: x7 + x101 + x148 + x187 + x201 + x204 + x259 + x266 + x286 >= 1
 c120: x55 + x66 + x93 + x121 + x191 + x205 + x209 + x221 + x246 + x273 + x321
       + x326 + x333 + x335 >= 1
 c121: x13 + x303 >= 1
 c122: x72 + x82 + x92 + x107 + x181 + x270 + x282 + x314 >= 1
 c123: x10 + x12 + x17 + x56 + x76 + x218 + x325 >= 1
 c124: x72 + x143 + x210 + x212 + x225 + x251 + x257 + x260 + x279 >= 1
 c125: x49 + x101 + x196 + x200 + x205 + x264 + x288 >= 1
 c126: x6 + x42 + x43 + x164 + x273 + x282 + x339 >= 1
 c127: x1 + x35 + x52 + x132 + x196 + x205 + x293 + x318 >= 1
 c128: x91 + x152 + x186 + x198 + x232 + x255 + x284 + x293 + x317 >= 1
 c129: x91 + x129 + x223 + x224 + x281 + x287 + x306 >= 1
 c130: x69 + x106 + x157 + x320 + x327 >= 1
 c131: x95 + x131 + x148 + x195 + x257 + x278 + x315 >= 1
 c132: x136 + x205 + x232 + x267 + x273 + x313 + x316 + x335 >= 1
 c133: x1 + x13 + x194 >= 1
 c134: x88 + x159 + x170 + x226 + x246 + x276 + x291 + x315 + x336 >= 1
 c135: x2 + x62 + x71 + x255 + x269 + x279 + x295 + x323 >= 1
 c136: x68 + x135 + x186 + x189 + x249 + x325 + x339 >= 1
 c137: x39 + x281 >= 1
 c138: x4 + x17 + x33 + x66 + x120 + x149 + x182 + x185 + x197 + x231 + x332
       >= 1
 c139: x33 + x48 + x129 + x147 + x155 + x321 >= 1
 c140: x3 + x150 + x170 + x224 + x296 + x316 >= 1
 c141: x33 + x54 + x152 + x178 + x185 + x188 + x226 + x229 + x244 + x285 + x306
       + x312 >= 1
 c142: x64 + x69 + x98 + x254 + x270 + x304 >= 1
 c143: x154 + x165 + x196 + x237 + x245 + x263 + x272 + x288 + x296 + x309
       + x319 + x336 >= 1
 c144: x85 + x152 + x230 + x236 + x266 + x331 >= 1
 c145: x33 + x54 + x103 + x106 + x220 + x222 + x295 + x302 + x303 + x305 + x325
       >= 1
 c146: x75 + x91 + x162 + x165 + x166 + x210 + x315 >= 1
 c147: x3 + x34 + x93 + x245 + x249 + x332 >= 1
 c148: x1 + x43 + x61 + x67 + x87 + x91 + x135 + x173 + x180 + x221 + x257
       + x282 + x323 >= 1
 c149: x18 + x53 + x146 + x160 + x309 >= 1
 c150: x12 + x62 + x76 + x216 + x248 + x271 + x291 + x293 + x299 >= 1
 c151: x128 + x146 + x154 + x157 + x174 + x214 + x258 + x270 + x321 + x335 >= 1
 c152: x53 + x103 + x104 + x148 + x151 + x230 + x287 + x293 + x302 >= 1
 c153: x10 + x36 + x38 + x74 + x119 + x131 + x146 + x198 + x219 + x234 + x258
       + x294 + x299 >= 1
 c154: x8 + x123 + x232 + x240 + x245 + x265 >= 1
 c155: x18 + x36 + x99 + x165 + x171 + x324 >= 1
 c156: x90 + x127 + x140 + x154 + x204 + x220 + x237 + x251 >= 1
 c157: x81 + x83 + x229 + x260 + x328 + x339 >= 1
 c158: x14 + x28 + x38 + x107 + x134 + x163 + x192 + x232 + x277 + x307 + x331
       >= 1
 c159: x7 + x84 + x117 + x131 + x229 + x333 >= 1
 c160: x5 + x49 + x176 + x270 + x328 >= 1
 c161: x2 + x33 + x63 + x163 + x203 + x243 + x276 >= 1
 c162: x62 + x95 + x150 + x202 + x207 + x220 + x252 + x271 + x317 >= 1
 c163: x4 + x9 + x100 + x149 + x170 + x179 + x190 + x286 + x293 >= 1
 c164: x247 + x250 + x253 + x292 + x332 + x337 >= 1
 c165: x4 + x171 + x265 + x285 + x313 >= 1
 c166: x96 + x117 + x141 + x223 + x301 + x305 >= 1
 c167: x84 + x88 + x94 + x115 + x139 + x158 + x181 + x321 >= 1
 c168: x7 + x64 + x79 + x121 + x185 + x210 + x304 + x305 + x307 + x332 >= 1
 c169: x123 + x124 + x130 + x134 + x189 + x285 >= 1
 c170: x74 + x98 + x289 + x319 >= 1
 c171: x118 + x120 + x177 + x182 + x201 + x217 + x276 + x289 + x302 >= 1
 c172: x6 + x88 + x109 + x139 + x160 + x234 + x338 >= 1
 c173: x22 + x76 + x159 + x192 + x199 + x229 + x248 + x288 + x306 + x307 >= 1
 c174: x105 + x118 + x150 + x288 + x310 >= 1
 c175: x61 + x111 + x126 + x338 >= 1
 c176: x137 + x160 + x270 + x294 + x325 + x328 + x333 + x336 >= 1
 c177: x8 + x38 + x125 + x230 + x269 + x282 >= 1
 c178: x26 + x87 + x91 + x120 + x156 + x202 + x217 + x248 + x261 + x299 >= 1
 c179: x76 + x109 + x161 + x194 + x213 + x234 + x252 + x294 + x327 + x337 >= 1
 c180: x35 + x48 + x84 + x116 + x119 + x138 + x171 + x199 + x272 + x279 + x302
       >= 1
 c181: x52 + x99 + x134 + x254 + x256 >= 1
 c182: x1 + x57 + x62 + x140 + x173 + x258 >= 1
 c183: x48 + x73 + x104 + x121 + x149 + x164 + x188 + x217 + x256 + x296 >= 1
 c184: x68 + x94 + x104 + x130 + x194 + x284 + x319 >= 1
 c185: x166 + x168 + x192 + x223 + x242 + x259 + x269 + x334 >= 1
 c186: x34 + x93 + x143 + x153 + x175 + x195 + x226 + x228 >= 1
 c187: x24 + x49 + x130 + x146 + x155 >= 1
 c188: x20 + x115 + x161 + x194 + x208 + x302 + x332 >= 1
 c189: x24 + x26 + x48 + x174 + x219 + x275 >= 1
 c190: x64 + x82 + x90 + x155 + x175 + x196 + x203 + x237 + x259 + x286 + x295
       + x297 + x318 >= 1
 c191: x41 + x150 + x264 + x271 + x305 >= 1
 c192: x73 + x248 + x266 + x310 + x333 >= 1
 c193: x182 + x190 + x191 + x208 + x249 + x273 + x300 + x314 + x326 >= 1
 c194: x62 + x72 + x195 + x219 + x229 + x272 + x289 + x301 + x335 + x339 >= 1
 c195: x4 + x69 + x160 + x183 + x192 + x198 + x303 + x323 >= 1
 c196: x80 + x104 + x127 + x181 + x198 + x241 >= 1
 c197: x62 + x115 + x175 + x283 + x321 + x327 + x338 >= 1
 c198: x96 + x100 + x184 + x254 + x329 >= 1
 c199: x67 + x132 + x216 + x233 + x326 >= 1
 c200: x5 + x19 + x63 + x102 + x173 + x178 + x202 + x251 + x253 + x285 + x287
       + x295 + x324 >= 1
 c201: x65 + x85 + x98 + x111 + x156 + x174 + x230 + x235 + x270 + x285 + x289
       + x325 + x335 + x337 >= 1
 c202: x2 + x37 + x86 + x88 + x139 + x143 + x210 + x232 + x283 + x303 + x323
       + x337 >= 1
 c203: x20 + x98 + x99 + x136 + x152 + x171 + x196 >= 1
 c204: x2 + x56 + x197 + x273 + x302 + x304 + x312 + x322 >= 1
 c205: x8 + x192 + x306 >= 1
 c206: x19 + x62 + x133 + x149 + x175 + x179 + x207 + x237 + x321 >= 1
 c207: x45 + x90 + x93 + x146 + x179 + x193 + x195 + x263 + x279 + x284 + x311
       >= 1
 c208: x23 + x85 + x117 + x239 + x243 + x263 + x269 >= 1
 c209: x2 + x40 + x99 + x151 + x211 + x222 + x262 >= 1
 c210: x4 + x40 + x45 + x65 + x84 + x96 + x220 + x237 + x301 >= 1
 c211: x198 + x207 + x233 + x240 + x297 + x317 >= 1
 c212: x58 + x104 + x116 + x121 + x211 + x221 + x292 + x306 + x338 >= 1
 c213: x5 + x190 + x205 + x289 + x302 >= 1
 c214: x27 + x85 + x124 + x224 + x301 + x337 >= 1
 c215: x74 + x79 + x80 + x115 + x153 + x182 + x192 + x194 + x207 + x216 + x230
       + x272 + x292 + x321 >= 1
 c216: x10 + x46 + x84 + x112 + x156 + x176 + x316 + x326 >= 1
 c217: x27 + x66 + x91 + x130 + x217 + x226 + x278 + x290 + x297 >= 1
 c218: x4 + x24 + x45 + x71 + x174 + x201 + x209 + x243 + x329 >= 1
 c219: x92 + x140 + x167 + x176 + x335 >= 1
 c220: x22 + x34 + x65 + x68 + x125 + x204 + x239 >= 1
 c221: x3 + x40 + x233 + x246 + x308 + x339 >= 1
 c222: x16 + x54 + x108 + x110 + x188 + x258 + x325 >= 1
 c223: x87 + x93 + x95 + x116 + x124 + x138 + x148 + x160 + x200 + x202 + x233
       + x290 + x303 + x337 >= 1
 c224: x6 + x30 + x34 + x105 + x262 + x306 >= 1
 c225: x89 + x187 + x196 + x206 + x298 + x331 >= 1
 c226: x25 + x247 + x269 + x296 + x330 + x336 >= 1
 c227: x18 + x20 + x171 + x204 + x234 >= 1
 c228: x31 + x47 + x133 + x171 + x195 + x256 + x305 + x312 >= 1
 c229: x1 + x42 + x51 + x65 + x78 + x108 + x115 + x146 + x187 + x208 + x260
       + x283 + x293 + x331 >= 1
 c230: x15 + x21 + x65 + x117 + x194 + x227 + x238 + x241 + x297 >= 1
 c231: x72 + x97 + x110 + x116 + x164 + x200 + x202 + x267 + x310 >= 1
 c232: x6 + x60 + x209 + x217 + x261 >= 1
 c233: x107 + x123 + x189 + x220 + x240 + x257 + x306 + x323 + x325 >= 1
 c234: x66 + x178 + x206 + x225 + x314 >= 1
 c235: x34 + x219 >= 1
 c236: x16 + x43 + x50 + x157 + x170 + x269 + x281 >= 1
 c237: x47 + x103 + x106 + x130 + x131 + x177 + x246 + x255 + x304 + x319 >= 1
 c238: x61 + x145 + x211 + x237 >= 1
 c239: x20 + x80 + x86 + x104 + x174 + x186 + x209 + x243 + x318 >= 1
 c240: x34 + x45 + x71 + x120 + x154 + x187 + x231 + x258 >= 1
 c241: x15 + x23 + x63 + x107 + x179 + x194 + x230 + x255 + x284 + x289 + x313
       >= 1
 c242: x4 + x89 + x103 + x220 + x225 + x297 + x306 >= 1
 c243: x11 + x33 + x64 + x75 + x239 + x286 >= 1
 c244: x44 + x88 + x141 + x166 + x183 + x195 + x199 + x240 + x280 + x322 >= 1
 c245: x15 + x55 + x82 + x109 + x224 + x234 + x296 + x312 + x317 >= 1
 c246: x95 + x147 + x152 + x163 + x164 + x175 + x257 + x308 + x327 + x334 >= 1
 c247: x125 + x173 + x176 + x286 + x301 + x312 >= 1
 c248: x33 + x36 + x50 + x131 + x218 + x235 >= 1
 c249: x118 + x197 + x272 >= 1
 c250: x8 + x72 + x108 + x124 + x142 + x192 + x205 + x276 + x296 + x322 + x326
       >= 1
 c251: x44 + x148 + x192 + x287 + x294 + x308 + x320 >= 1
 c252: x32 + x42 + x62 + x105 + x123 + x154 + x173 + x193 + x294 + x308 >= 1
 c253: x106 + x178 + x200 >= 1
 c254: x2 + x37 + x92 + x100 + x173 + x197 + x257 + x259 + x286 + x290 + x338
       >= 1
 c255: x19 + x20 + x35 + x102 + x140 + x216 + x221 + x300 + x307 + x315 + x330
       >= 1
 c256: x8 + x217 + x222 + x235 + x282 + x293 >= 1
 c257: x1 + x37 + x41 + x86 + x211 >= 1
 c258: x23 + x35 + x72 + x90 + x102 + x128 + x147 + x206 + x281 + x318 + x325
       + x332 >= 1
 c259: x2 + x142 + x204 + x231 + x244 + x254 >= 1
 c260: x155 + x181 + x203 + x206 + x276 + x284 + x290 + x295 + x301 + x308
       + x324 + x325 + x329 + x332 >= 1
 c261: x2 + x207 + x238 + x281 >= 1
 c262: x1 + x84 + x132 + x219 + x276 + x293 + x307 >= 1
 c263: x11 + x158 + x216 + x230 + x232 + x267 >= 1
 c264: x58 + x153 + x170 + x177 + x183 + x216 + x259 >= 1
 c265: x71 + x92 + x94 + x123 + x129 + x264 + x283 >= 1
 c266: x9 + x43 + x47 + x65 + x217 + x235 + x281 + x291 + x318 + x328 >= 1
 c267: x18 + x162 + x171 + x260 + x301 >= 1
 c268: x14 + x70 + x139 + x193 + x206 + x239 >= 1
 c269: x18 + x85 + x96 + x101 + x126 + x144 + x153 + x166 + x219 + x247 + x280
       + x291 + x326 + x334 >= 1
 c270: x101 + x168 + x172 + x202 + x224 + x229 + x254 + x262 + x293 + x295
       + x310 + x311 + x329 >= 1
 c271: x17 + x79 + x93 + x118 + x151 + x179 + x232 + x250 + x326 >= 1
 c272: x34 + x42 + x94 + x117 + x145 + x184 + x214 + x254 + x292 + x304 >= 1
 c273: x143 + x184 + x277 + x331 >= 1
 c274: x52 + x98 + x177 + x192 + x199 + x267 + x274 + x283 >= 1
 c275: x16 + x27 + x40 + x52 + x95 + x177 + x193 + x216 + x242 + x274 >= 1
 c276: x59 + x134 + x192 + x229 + x312 + x328 >= 1
 c277: x3 + x56 + x84 + x101 + x127 + x182 + x186 + x269 >= 1
 c278: x37 + x49 + x106 + x180 + x212 + x281 + x285 + x316 + x327 >= 1
 c279: x26 + x75 + x84 + x96 + x250 + x271 + x304 + x321 >= 1
 c280: x34 + x86 + x95 + x133 + x159 + x302 >= 1
 c281: x1 + x47 + x129 + x130 + x245 + x316 + x321 >= 1
 c282: x19 + x23 + x70 + x114 + x170 + x180 + x201 + x208 + x216 + x218 + x231
       + x242 + x290 >= 1
 c283: x6 + x92 + x115 + x122 + x132 + x137 + x170 + x186 + x218 + x263 + x294
       + x323 >= 1
 c284: x65 + x66 + x74 + x175 + x201 + x217 + x268 + x323 >= 1
 c285: x81 + x203 + x209 + x269 + x332 >= 1
 c286: x29 + x159 + x235 + x263 + x330 >= 1
 c287: x78 + x136 + x183 + x271 + x299 >= 1
 c288: x84 + x86 + x180 + x192 + x266 + x270 + x277 + x280 + x305 + x328 >= 1
 c289: x46 + x85 + x98 + x118 + x126 + x141 + x151 + x322 >= 1
 c290: x7 + x9 + x61 + x89 + x118 + x128 + x176 + x218 >= 1
 c291: x50 + x64 + x85 + x117 + x147 + x153 + x181 + x244 + x317 >= 1
 c292: x5 + x64 + x105 + x118 + x249 + x270 + x274 + x283 + x295 >= 1
 c293: x9 + x13 + x59 + x194 + x235 + x243 + x297 + x302 + x321 >= 1
 c294: x44 + x94 + x117 + x151 + x171 + x327 >= 1
 c295: x12 + x125 + x136 + x198 + x228 + x280 + x301 + x317 >= 1
 c296: x13 + x38 + x128 + x298 + x335 >= 1
 c297: x17 + x47 + x87 + x88 + x147 + x162 + x269 + x283 + x286 + x297 + x334
       >= 1
 c298: x3 + x96 + x111 + x132 + x183 + x230 + x233 + x241 + x242 + x270 >= 1
 c299: x2 + x49 + x85 + x103 + x146 + x153 + x163 + x206 + x255 + x315 + x326
       >= 1
 c300: x28 + x133 + x157 + x277 + x298 + x309 >= 1
Bounds
 0 <= x1 <= 1
 0 <= x2 <= 1
 0 <= x3 <= 1
 0 <= x4 <= 1
 0 <= x5 <= 1
 0 <= x6 <= 1
 0 <= x7 <= 1
 0 <= x8 <= 1
 0 <= x9 <= 1
 0 <= x10 <= 1
 0 <= x11 <= 1
 0 <= x12 <= 1
 0 <= x13 <= 1
 0 <= x14 <= 1
 0 <= x15 <= 1
 0 <= x16 <= 1
 0 <= x17 <= 1
 0 <= x18 <= 1
 0 <= x19 <= 1
 0 <= x20 <= 1
 0 <= x21 <= 1
 0 <= x22 <= 1
 0 <= x23 <= 1
 0 <= x24 <= 1
 0 <= x25 <= 1
 0 <= x26 <= 1
 0 <= x27 <= 1
 0 <= x28 <= 1
 0 <= x29 <= 1
 0 <= x30 <= 1
 0 <= x31 <= 1
 0 <= x32 <= 1
 0 <= x33 <= 1
 0 <= x34 <= 1
 0 <= x35 <= 1
 0 <= x36 <= 1
 0 <= x37 <= 1
 0 <= x38 <= 1
 0 <= x39 <= 1
 0 <= x40 <= 1
 0 <= x41 <= 1
 0 <= x42 <= 1
 0 <= x43 <= 1
 0 <= x44 <= 1
 0 <= x45 <= 1
 0 <= x46 <= 1
 0 <= x47 <= 1
 0 <= x48 <= 1
 0 <= x49 <= 1
 0 <= x50 <= 1
 0 <= x51 <= 1
 0 <= x52 <= 1
 0 <= x53 <= 1
 0 <= x54 <= 1
 0 <= x55 <= 1
 0 <= x56 <= 1
 0 <= x57 <= 1
 0 <= x58 <= 1
 0 <= x59 <= 1
 0 <= x60 <= 1
 0 <= x61 <= 1
 0 <= x62 <= 1
 0 <= x63 <= 1
 0 <= x64 <= 1
 0 <= x65 <= 1
 0 <= x66 <= 1
 0 <= x67 <= 1
 0 <= x68 <= 1
 0 <= x69 <= 1
 0 <= x70 <= 1
 0 <= x71 <= 1
 0 <= x72 <= 1
 0 <= x73 <= 1
 0 <= x74 <= 1
 0 <= x75 <= 1
 0 <= x76 <= 1
 0 <= x77 <= 1
 0 <= x78 <= 1
 0 <= x79 <= 1
 0 <= x80 <= 1
 0 <= x81 <= 1
 0 <= x82 <= 1
 0 <= x83 <= 1
 0 <= x84 <= 1
 0 <= x85 <= 1
 0 <= x86 <= 1
 0 <= x87 <= 1
 0 <= x88 <= 1
 0 <= x89 <= 1
 0 <= x90 <= 1
 0 <= x91 <= 1
 0 <= x92 <= 1
 0 <= x93 <= 1
 0 <= x94 <= 1
 0 <= x95 <= 1
 0 <= x96 <= 1
 0 <= x97 <= 1
 0 <= x98 <= 1
 0 <= x99 <= 1
 0 <= x100 <= 1
 0 <= x101 <= 1
 0 <= x102 <= 1
 0 <= x103 <= 1
 0 <= x104 <= 1
 0 <= x105 <= 1
 0 <= x106 <= 1
 0 <= x107 <= 1
 0 <= x108 <= 1
 0 <= x109 <= 1
 0 <= x110 <= 1
 0 <= x111 <= 1
 0 <= x112 <= 1
 0 <= x113 <= 1
 0 <= x114 <= 1
 0 <= x115 <= 1
 0 <= x116 <= 1
 0 <= x117 <= 1
 0 <= x118 <= 1
 0 <= x119 <= 1
 0 <= x120 <= 1
 0 <= x121 <= 1
 0 <= x122 <= 1
 0 <= x123 <= 1
 0 <= x124 <= 1
 0 <= x125 <= 1
 0 <= x126 <= 1
 0 <= x127 <= 1
 0 <= x128 <= 1
 0 <= x129 <= 1
 0 <= x130 <= 1
 0 <= x131 <= 1
 0 <= x132 <= 1
 0 <= x133 <= 1
 0 <= x134 <= 1
 0 <= x135 <= 1
 0 <= x136 <= 1
 0 <= x137 <= 1
 0 <= x138 <= 1
 0 <= x139 <= 1
 0 <= x140 <= 1
 0 <= x141 <= 1
 0 <= x142 <= 1
 0 <= x143 <= 1
 0 <= x144 <= 1
 0 <= x145 <= 1
 0 <= x146 <= 1
 0 <= x147 <= 1
 0 <= x148 <= 1
 0 <= x149 <= 1
 0 <= x150 <= 1
 0 <= x151 <= 1
 0 <= x152 <= 1
 0 <= x153 <= 1
 0 <= x154 <= 1
 0 <= x155 <= 1
 0 <= x156 <= 1
 0 <= x157 <= 1
 0 <= x158 <= 1
 0 <= x159 <= 1
 0 <= x160 <= 1
 0 <= x161 <= 1
 0 <= x162 <= 1
 0 <= x163 <= 1
 0 <= x164 <= 1
 0 <= x165 <= 1
 0 <= x166 <= 1
 0 <= x167 <= 1
 0 <= x168 <= 1
 0 <= x169 <= 1
 0 <= x170 <= 1
 0 <= x171 <= 1
 0 <= x172 <= 1
 0 <= x173 <= 1
 0 <= x174 <= 1
 0 <= x175 <= 1
 0 <= x176 <= 1
 0 <= x177 <= 1
 0 <= x178 <= 1
 0 <= x179 <= 1
 0 <= x180 <= 1
 0 <= x181 <= 1
 0 <= x182 <= 1
 0 <= x183 <= 1
 0 <= x184 <= 1
 0 <= x185 <= 1
 0 <= x186 <= 1
 0 <= x187 <= 1
 0 <= x188 <= 1
 0 <= x189 <= 1
 0 <= x190 <= 1
 0 <= x191 <= 1
 0 <= x192 <= 1
 0 <= x193 <= 1
 0 <= x194 <= 1
 0 <= x195 <= 1
 0 <= x196 <= 1
 0 <= x197 <= 1
 0 <= x198 <= 1
 0 <= x199 <= 1
 0 <= x200 <= 1
 0 <= x201 <= 1
 0 <= x202 <= 1
 0 <= x203 <= 1
 0 <= x204 <= 1
 0 <= x205 <= 1
 0 <= x206 <= 1
 0 <= x207 <= 1
 0 <= x208 <= 1
 0 <= x209 <= 1
 0 <= x210 <= 1
 0 <= x211 <= 1
 0 <= x212 <= 1
 0 <= x213 <= 1
 0 <= x214 <= 1
 0 <= x215 <= 1
 0 <= x216 <= 1
 0 <= x217 <= 1
 0 <= x218 <= 1
 0 <= x219 <= 1
 0 <= x220 <= 1
 0 <= x221 <= 1
 0 <= x222 <= 1
 0 <= x223 <= 1
 0 <= x224 <= 1
 0 <= x225 <= 1
 0 <= x226 <= 1
 0 <= x227 <= 1
 0 <= x228 <= 1
 0 <= x229 <= 1
 0 <= x230 <= 1
 0 <= x231 <= 1
 0 <= x232 <= 1
 0 <= x233 <= 1
 0 <= x234 <= 1
 0 <= x235 <= 1
 0 <= x236 <= 1
 0 <= x237 <= 1
 0 <= x238 <= 1
 0 <= x239 <= 1
 0 <= x240 <= 1
 0 <= x241 <= 1
 0 <= x242 <= 1
 0 <= x243 <= 1
 0 <= x244 <= 1
 0 <= x245 <= 1
 0 <= x246 <= 1
 0 <= x247 <= 1
 0 <= x248 <= 1
 0 <= x249 <= 1
 0 <= x250 <= 1
 0 <= x251 <= 1
 0 <= x252 <= 1
 0 <= x253 <= 1
 0 <= x254 <= 1
 0 <= x255 <= 1
 0 <= x256 <= 1
 0 <= x257 <= 1
 0 <= x258 <= 1
 0 <= x259 <= 1
 0 <= x260 <= 1
 0 <= x261 <= 1
 0 <= x262 <= 1
 0 <= x263 <= 1
 0 <= x264 <= 1
 0 <= x265 <= 1
 0 <= x266 <= 1
 0 <= x267 <= 1
 0 <= x268 <= 1
 0 <= x269 <= 1
 0 <= x270 <= 1
 0 <= x271 <= 1
 0 <= x272 <= 1
 0 <= x273 <= 1
 0 <= x274 <= 1
 0 <= x275 <= 1
 0 <= x276 <= 1
 0 <= x277 <= 1
 0 <= x278 <= 1
 0 <= x279 <= 1
 0 <= x280 <= 1
 0 <= x281 <= 1
 0 <= x282 <= 1
 0 <= x283 <= 1
 0 <= x284 <= 1
 0 <= x285 <= 1
 0 <= x286 <= 1
 0 <= x287 <= 1
 0 <= x288 <= 1
 0 <= x289 <= 1
 0 <= x290 <= 1
 0 <= x291 <= 1
 0 <= x292 <= 1
 0 <= x293 <= 1
 0 <= x294 <= 1
 0 <= x295 <= 1
 0 <= x296 <= 1
 0 <= x297 <= 1
 0 <= x298 <= 1
 0 <= x299 <= 1
 0 <= x300 <= 1
 0 <= x301 <= 1
 0 <= x302 <= 1
 0 <= x303 <= 1
 0 <= x304 <= 1
 0 <= x305 <= 1
 0 <= x306 <= 1
 0 <= x307 <= 1
 0 <= x308 <= 1
 0 <= x309 <= 1
 0 <= x310 <= 1
 0 <= x311 <= 1
 0 <= x312 <= 1
 0 <= x313 <= 1
 0 <= x314 <= 1
 0 <= x315 <= 1
 0 <= x316 <= 1
 0 <= x317 <= 1
 0 <= x318 <= 1
 0 <= x319 <= 1
 0 <= x320 <= 1
 0 <= x321 <= 1
 0 <= x322 <= 1
 0 <= x323 <= 1
 0 <= x324 <= 1
 0 <= x325 <= 1
 0 <= x326 <= 1
 0 <= x327 <= 1
 0 <= x328 <= 1
 0 <= x329 <= 1
 0 <= x330 <= 1
 0 <= x331 <= 1
 0 <= x332 <= 1
 0 <= x333 <= 1
 0 <= x334 <= 1
 0 <= x335 <= 1
 0 <= x336 <= 1
 0 <= x337 <= 1
 0 <= x338 <= 1
 0 <= x339 <= 1
Binaries
 x1  x2  x3  x4  x5  x6  x7  x8  x9  x10  x11  x12  x13  x14  x15  x16  x17 
 x18  x19  x20  x21  x22  x23  x24  x25  x26  x27  x28  x29  x30  x31  x32 
 x33  x34  x35  x36  x37  x38  x39  x40  x41  x42  x43  x44  x45  x46  x47 
 x48  x49  x50  x51  x52  x53  x54  x55  x56  x57  x58  x59  x60  x61  x62 
 x63  x64  x65  x66  x67  x68  x69  x70  x71  x72  x73  x74  x75  x76  x77 
 x78  x79  x80  x81  x82  x83  x84  x85  x86  x87  x88  x89  x90  x91  x92 
 x93  x94  x95  x96  x97  x98  x99  x100  x101  x102  x103  x104  x105  x106 
 x107  x108  x109  x110  x111  x112  x113  x114  x115  x116  x117  x118  x119 
 x120  x121  x122  x123  x124  x125  x126  x127  x128  x129  x130  x131  x132 
 x133  x134  x135  x136  x137  x138  x139  x140  x141  x142  x143  x144  x145 
 x146  x147  x148  x149  x150  x151  x152  x153  x154  x155  x156  x157  x158 
 x159  x160  x161  x162  x163  x164  x165  x166  x167  x168  x169  x170  x171 
 x172  x173  x174  x175  x176  x177  x178  x179  x180  x181  x182  x183  x184 
 x185  x186  x187  x188  x189  x190  x191  x192  x193  x194  x195  x196  x197 
 x198  x199  x200  x201  x202  x203  x204  x205  x206  x207  x208  x209  x210 
 x211  x212  x213  x214  x215  x216  x217  x218  x219  x220  x221  x222  x223 
 x224  x225  x226  x227  x228  x229  x230  x231  x232  x233  x234  x235  x236 
 x237  x238  x239  x240  x241  x242  x243  x244  x245  x246  x247  x248  x249 
 x250  x251  x252  x253  x254  x255  x256  x257  x258  x259  x260  x261  x262 
 x263  x264  x265  x266  x267  x268  x269  x270  x271  x272  x273  x274  x275 
 x276  x277  x278  x279  x280  x281  x282  x283  x284  x285  x286  x287  x288 
 x289  x290  x291  x292  x293  x294  x295  x296  x297  x298  x299  x300  x301 
 x302  x303  x304  x305  x306  x307  x308  x309  x310  x311  x312  x313  x314 
 x315  x316  x317  x318  x319  x320  x321  x322  x323  x324  x325  x326  x327 
 x328  x329  x330  x331  x332  x333  x334  x335  x336  x337  x338  x339 
End
